*Heading
** Job name: Job-1 Model name: Model-1
** Generated by: Abaqus/CAE 2022
*Preprint, echo=NO, model=NO, history=NO, contact=NO
**
** PARTS
**
*Part, name=Part-1
*End Part
**  
**
** ASSEMBLY
**
*Assembly, name=Assembly
**  
*Instance, name=Part-1-1, part=Part-1
*Node
      1,  0.200000001,  0.200000001,           2.
      2,  0.200000001,           0.,           2.
      3,  0.200000001,  0.200000001,   1.96000004
      4,  0.200000001,           0.,   1.96000004
      5,  0.200000001,  0.200000001,   1.91999996
      6,  0.200000001,           0.,   1.91999996
      7,  0.200000001,  0.200000001,         1.88
      8,  0.200000001,           0.,         1.88
      9,  0.200000001,  0.200000001,   1.84000003
     10,  0.200000001,           0.,   1.84000003
     11,  0.200000001,  0.200000001,   1.79999995
     12,  0.200000001,           0.,   1.79999995
     13,  0.200000001,  0.200000001,   1.75999999
     14,  0.200000001,           0.,   1.75999999
     15,  0.200000001,  0.200000001,   1.72000003
     16,  0.200000001,           0.,   1.72000003
     17,  0.200000001,  0.200000001,   1.67999995
     18,  0.200000001,           0.,   1.67999995
     19,  0.200000001,  0.200000001,   1.63999999
     20,  0.200000001,           0.,   1.63999999
     21,  0.200000001,  0.200000001,   1.60000002
     22,  0.200000001,           0.,   1.60000002
     23,  0.200000001,  0.200000001,   1.55999994
     24,  0.200000001,           0.,   1.55999994
     25,  0.200000001,  0.200000001,   1.51999998
     26,  0.200000001,           0.,   1.51999998
     27,  0.200000001,  0.200000001,   1.48000002
     28,  0.200000001,           0.,   1.48000002
     29,  0.200000001,  0.200000001,   1.44000006
     30,  0.200000001,           0.,   1.44000006
     31,  0.200000001,  0.200000001,   1.39999998
     32,  0.200000001,           0.,   1.39999998
     33,  0.200000001,  0.200000001,   1.36000001
     34,  0.200000001,           0.,   1.36000001
     35,  0.200000001,  0.200000001,   1.32000005
     36,  0.200000001,           0.,   1.32000005
     37,  0.200000001,  0.200000001,   1.27999997
     38,  0.200000001,           0.,   1.27999997
     39,  0.200000001,  0.200000001,   1.24000001
     40,  0.200000001,           0.,   1.24000001
     41,  0.200000001,  0.200000001,   1.20000005
     42,  0.200000001,           0.,   1.20000005
     43,  0.200000001,  0.200000001,   1.15999997
     44,  0.200000001,           0.,   1.15999997
     45,  0.200000001,  0.200000001,         1.12
     46,  0.200000001,           0.,         1.12
     47,  0.200000001,  0.200000001,   1.08000004
     48,  0.200000001,           0.,   1.08000004
     49,  0.200000001,  0.200000001,   1.03999996
     50,  0.200000001,           0.,   1.03999996
     51,  0.200000001,  0.200000001,           1.
     52,  0.200000001,           0.,           1.
     53,  0.200000001,  0.200000001,  0.959999979
     54,  0.200000001,           0.,  0.959999979
     55,  0.200000001,  0.200000001,  0.920000017
     56,  0.200000001,           0.,  0.920000017
     57,  0.200000001,  0.200000001,  0.879999995
     58,  0.200000001,           0.,  0.879999995
     59,  0.200000001,  0.200000001,  0.839999974
     60,  0.200000001,           0.,  0.839999974
     61,  0.200000001,  0.200000001,  0.800000012
     62,  0.200000001,           0.,  0.800000012
     63,  0.200000001,  0.200000001,   0.75999999
     64,  0.200000001,           0.,   0.75999999
     65,  0.200000001,  0.200000001,  0.720000029
     66,  0.200000001,           0.,  0.720000029
     67,  0.200000001,  0.200000001,  0.680000007
     68,  0.200000001,           0.,  0.680000007
     69,  0.200000001,  0.200000001,  0.639999986
     70,  0.200000001,           0.,  0.639999986
     71,  0.200000001,  0.200000001,  0.600000024
     72,  0.200000001,           0.,  0.600000024
     73,  0.200000001,  0.200000001,  0.560000002
     74,  0.200000001,           0.,  0.560000002
     75,  0.200000001,  0.200000001,  0.519999981
     76,  0.200000001,           0.,  0.519999981
     77,  0.200000001,  0.200000001,  0.479999989
     78,  0.200000001,           0.,  0.479999989
     79,  0.200000001,  0.200000001,  0.439999998
     80,  0.200000001,           0.,  0.439999998
     81,  0.200000001,  0.200000001,  0.400000006
     82,  0.200000001,           0.,  0.400000006
     83,  0.200000001,  0.200000001,  0.360000014
     84,  0.200000001,           0.,  0.360000014
     85,  0.200000001,  0.200000001,  0.319999993
     86,  0.200000001,           0.,  0.319999993
     87,  0.200000001,  0.200000001,  0.280000001
     88,  0.200000001,           0.,  0.280000001
     89,  0.200000001,  0.200000001,  0.239999995
     90,  0.200000001,           0.,  0.239999995
     91,  0.200000001,  0.200000001,  0.200000003
     92,  0.200000001,           0.,  0.200000003
     93,  0.200000001,  0.200000001,  0.159999996
     94,  0.200000001,           0.,  0.159999996
     95,  0.200000001,  0.200000001,  0.119999997
     96,  0.200000001,           0.,  0.119999997
     97,  0.200000001,  0.200000001, 0.0799999982
     98,  0.200000001,           0., 0.0799999982
     99,  0.200000001,  0.200000001, 0.0399999991
    100,  0.200000001,           0., 0.0399999991
    101,  0.200000001,  0.200000001,           0.
    102,  0.200000001,           0.,           0.
    103,           0.,  0.200000001,           2.
    104,           0.,           0.,           2.
    105,           0.,  0.200000001,   1.96000004
    106,           0.,           0.,   1.96000004
    107,           0.,  0.200000001,   1.91999996
    108,           0.,           0.,   1.91999996
    109,           0.,  0.200000001,         1.88
    110,           0.,           0.,         1.88
    111,           0.,  0.200000001,   1.84000003
    112,           0.,           0.,   1.84000003
    113,           0.,  0.200000001,   1.79999995
    114,           0.,           0.,   1.79999995
    115,           0.,  0.200000001,   1.75999999
    116,           0.,           0.,   1.75999999
    117,           0.,  0.200000001,   1.72000003
    118,           0.,           0.,   1.72000003
    119,           0.,  0.200000001,   1.67999995
    120,           0.,           0.,   1.67999995
    121,           0.,  0.200000001,   1.63999999
    122,           0.,           0.,   1.63999999
    123,           0.,  0.200000001,   1.60000002
    124,           0.,           0.,   1.60000002
    125,           0.,  0.200000001,   1.55999994
    126,           0.,           0.,   1.55999994
    127,           0.,  0.200000001,   1.51999998
    128,           0.,           0.,   1.51999998
    129,           0.,  0.200000001,   1.48000002
    130,           0.,           0.,   1.48000002
    131,           0.,  0.200000001,   1.44000006
    132,           0.,           0.,   1.44000006
    133,           0.,  0.200000001,   1.39999998
    134,           0.,           0.,   1.39999998
    135,           0.,  0.200000001,   1.36000001
    136,           0.,           0.,   1.36000001
    137,           0.,  0.200000001,   1.32000005
    138,           0.,           0.,   1.32000005
    139,           0.,  0.200000001,   1.27999997
    140,           0.,           0.,   1.27999997
    141,           0.,  0.200000001,   1.24000001
    142,           0.,           0.,   1.24000001
    143,           0.,  0.200000001,   1.20000005
    144,           0.,           0.,   1.20000005
    145,           0.,  0.200000001,   1.15999997
    146,           0.,           0.,   1.15999997
    147,           0.,  0.200000001,         1.12
    148,           0.,           0.,         1.12
    149,           0.,  0.200000001,   1.08000004
    150,           0.,           0.,   1.08000004
    151,           0.,  0.200000001,   1.03999996
    152,           0.,           0.,   1.03999996
    153,           0.,  0.200000001,           1.
    154,           0.,           0.,           1.
    155,           0.,  0.200000001,  0.959999979
    156,           0.,           0.,  0.959999979
    157,           0.,  0.200000001,  0.920000017
    158,           0.,           0.,  0.920000017
    159,           0.,  0.200000001,  0.879999995
    160,           0.,           0.,  0.879999995
    161,           0.,  0.200000001,  0.839999974
    162,           0.,           0.,  0.839999974
    163,           0.,  0.200000001,  0.800000012
    164,           0.,           0.,  0.800000012
    165,           0.,  0.200000001,   0.75999999
    166,           0.,           0.,   0.75999999
    167,           0.,  0.200000001,  0.720000029
    168,           0.,           0.,  0.720000029
    169,           0.,  0.200000001,  0.680000007
    170,           0.,           0.,  0.680000007
    171,           0.,  0.200000001,  0.639999986
    172,           0.,           0.,  0.639999986
    173,           0.,  0.200000001,  0.600000024
    174,           0.,           0.,  0.600000024
    175,           0.,  0.200000001,  0.560000002
    176,           0.,           0.,  0.560000002
    177,           0.,  0.200000001,  0.519999981
    178,           0.,           0.,  0.519999981
    179,           0.,  0.200000001,  0.479999989
    180,           0.,           0.,  0.479999989
    181,           0.,  0.200000001,  0.439999998
    182,           0.,           0.,  0.439999998
    183,           0.,  0.200000001,  0.400000006
    184,           0.,           0.,  0.400000006
    185,           0.,  0.200000001,  0.360000014
    186,           0.,           0.,  0.360000014
    187,           0.,  0.200000001,  0.319999993
    188,           0.,           0.,  0.319999993
    189,           0.,  0.200000001,  0.280000001
    190,           0.,           0.,  0.280000001
    191,           0.,  0.200000001,  0.239999995
    192,           0.,           0.,  0.239999995
    193,           0.,  0.200000001,  0.200000003
    194,           0.,           0.,  0.200000003
    195,           0.,  0.200000001,  0.159999996
    196,           0.,           0.,  0.159999996
    197,           0.,  0.200000001,  0.119999997
    198,           0.,           0.,  0.119999997
    199,           0.,  0.200000001, 0.0799999982
    200,           0.,           0., 0.0799999982
    201,           0.,  0.200000001, 0.0399999991
    202,           0.,           0., 0.0399999991
    203,           0.,  0.200000001,           0.
    204,           0.,           0.,           0.
*Element, type=C3D8T
 1, 103, 104, 106, 105,   1,   2,   4,   3
 2, 105, 106, 108, 107,   3,   4,   6,   5
 3, 107, 108, 110, 109,   5,   6,   8,   7
 4, 109, 110, 112, 111,   7,   8,  10,   9
 5, 111, 112, 114, 113,   9,  10,  12,  11
 6, 113, 114, 116, 115,  11,  12,  14,  13
 7, 115, 116, 118, 117,  13,  14,  16,  15
 8, 117, 118, 120, 119,  15,  16,  18,  17
 9, 119, 120, 122, 121,  17,  18,  20,  19
10, 121, 122, 124, 123,  19,  20,  22,  21
11, 123, 124, 126, 125,  21,  22,  24,  23
12, 125, 126, 128, 127,  23,  24,  26,  25
13, 127, 128, 130, 129,  25,  26,  28,  27
14, 129, 130, 132, 131,  27,  28,  30,  29
15, 131, 132, 134, 133,  29,  30,  32,  31
16, 133, 134, 136, 135,  31,  32,  34,  33
17, 135, 136, 138, 137,  33,  34,  36,  35
18, 137, 138, 140, 139,  35,  36,  38,  37
19, 139, 140, 142, 141,  37,  38,  40,  39
20, 141, 142, 144, 143,  39,  40,  42,  41
21, 143, 144, 146, 145,  41,  42,  44,  43
22, 145, 146, 148, 147,  43,  44,  46,  45
23, 147, 148, 150, 149,  45,  46,  48,  47
24, 149, 150, 152, 151,  47,  48,  50,  49
25, 151, 152, 154, 153,  49,  50,  52,  51
26, 153, 154, 156, 155,  51,  52,  54,  53
27, 155, 156, 158, 157,  53,  54,  56,  55
28, 157, 158, 160, 159,  55,  56,  58,  57
29, 159, 160, 162, 161,  57,  58,  60,  59
30, 161, 162, 164, 163,  59,  60,  62,  61
31, 163, 164, 166, 165,  61,  62,  64,  63
32, 165, 166, 168, 167,  63,  64,  66,  65
33, 167, 168, 170, 169,  65,  66,  68,  67
34, 169, 170, 172, 171,  67,  68,  70,  69
35, 171, 172, 174, 173,  69,  70,  72,  71
36, 173, 174, 176, 175,  71,  72,  74,  73
37, 175, 176, 178, 177,  73,  74,  76,  75
38, 177, 178, 180, 179,  75,  76,  78,  77
39, 179, 180, 182, 181,  77,  78,  80,  79
40, 181, 182, 184, 183,  79,  80,  82,  81
41, 183, 184, 186, 185,  81,  82,  84,  83
42, 185, 186, 188, 187,  83,  84,  86,  85
43, 187, 188, 190, 189,  85,  86,  88,  87
44, 189, 190, 192, 191,  87,  88,  90,  89
45, 191, 192, 194, 193,  89,  90,  92,  91
46, 193, 194, 196, 195,  91,  92,  94,  93
47, 195, 196, 198, 197,  93,  94,  96,  95
48, 197, 198, 200, 199,  95,  96,  98,  97
49, 199, 200, 202, 201,  97,  98, 100,  99
50, 201, 202, 204, 203,  99, 100, 102, 101
*Nset, nset=Set-1, generate
   1,  204,    1
*Elset, elset=Set-1, generate
  1,  50,   1
** Section: Section-1
*Solid Section, elset=Set-1, material=Void
,
*End Instance
**  
*Nset, nset=Flux_nodes, instance=Part-1-1
 101, 102, 203, 204
*Nset, nset=Set-X1, instance=Part-1-1
 101, 102, 203, 204
*Elset, elset=Set-X1, instance=Part-1-1
 50,
*Nset, nset=Set-X2, instance=Part-1-1
   1,   2, 103, 104
*Elset, elset=Set-X2, instance=Part-1-1
 1,
*Nset, nset=Volume, instance=Part-1-1, generate
   1,  204,    1
*Elset, elset=Volume, instance=Part-1-1, generate
  1,  50,   1
*End Assembly
** 
** MATERIALS
** 
*Material, name=Void
*Density
1.,
*Depvar
     10,
*User Material, constants=1, type=THERMAL
1.,
*User Material, constants=2, type=MECHANICAL
1.,1.
** 
** PREDEFINED FIELDS
** 
** Name: Predefined Field-1   Type: Temperature
*Initial Conditions, type=TEMPERATURE
Volume, 0.
** ----------------------------------------------------------------
** 
** STEP: Step-1
** 
*Step, name=Step-1, nlgeom=YES, inc=1000000
*Coupled Temperature-displacement, creep=none, deltmx=1e+20
0.01, 200., 1e-15, 1.
** 
** BOUNDARY CONDITIONS
** 
** Name: CL1 Type: Temperature
*Cflux
Flux_nodes, 11, 2e11
** Name: CL2 Type: Temperature
** 
** OUTPUT REQUESTS
** 
*Restart, write, frequency=0
** 
** FIELD OUTPUT: F-Output-1
** 
*Output, field
*Node Output
CF, NT, RF, RFL, U
*Element Output, directions=YES
HFL, IVOL, LE, PE, PEEQ, PEMAG, S, SDV
*Contact Output
CDISP, CSTRESS
** 
** HISTORY OUTPUT: H-Output-1
** 
*Output, history, variable=PRESELECT
*End Step
** ----------------------------------------------------------------
** 
** STEP: Step-2
** 
*Step, name=Step-2, nlgeom=YES, inc=1000000
*Coupled Temperature-displacement, creep=none, deltmx=1e+20
0.001, 800., 1e-15, 1.
** 
** BOUNDARY CONDITIONS
** 
** Name: CL1 Type: Temperature
*Cflux, op=NEW
Flux_nodes, 11, 0.
** 
** OUTPUT REQUESTS
** 
*Restart, write, frequency=0
** 
** FIELD OUTPUT: F-Output-1
** 
*Output, field
*Node Output
CF, NT, RF, RFL, U
*Element Output, directions=YES
HFL, IVOL, LE, PE, PEEQ, PEMAG, S, SDV
*Contact Output
CDISP, CSTRESS
** 
** HISTORY OUTPUT: H-Output-1
** 
*Output, history, variable=PRESELECT
*End Step
